p edge 59 814
e 3 2
e 4 2
e 5 1
e 5 2
e 5 4
e 6 3
e 6 4
e 7 1
e 7 4
e 7 6
e 8 2
e 8 3
e 8 4
e 8 7
e 9 5
e 10 1
e 10 3
e 10 4
e 10 5
e 10 6
e 11 1
e 11 4
e 11 5
e 11 8
e 11 9
e 12 2
e 12 3
e 12 5
e 12 7
e 12 8
e 12 10
e 12 11
e 13 1
e 13 3
e 13 4
e 13 11
e 13 12
e 14 1
e 14 2
e 14 3
e 14 5
e 14 8
e 14 9
e 14 11
e 15 2
e 15 3
e 15 4
e 15 5
e 15 6
e 15 8
e 15 9
e 15 10
e 15 12
e 15 13
e 16 2
e 16 3
e 16 8
e 16 15
e 17 8
e 17 9
e 17 10
e 17 14
e 17 15
e 18 1
e 18 3
e 18 6
e 18 9
e 18 10
e 18 14
e 18 17
e 19 2
e 19 6
e 19 8
e 19 16
e 19 18
e 20 2
e 20 8
e 20 9
e 20 13
e 20 14
e 20 16
e 20 18
e 20 19
e 21 3
e 21 4
e 21 6
e 21 8
e 21 9
e 21 13
e 21 14
e 21 16
e 21 19
e 22 3
e 22 4
e 22 6
e 22 9
e 22 14
e 22 15
e 22 16
e 22 18
e 22 20
e 23 1
e 23 4
e 23 6
e 23 9
e 23 14
e 23 16
e 23 17
e 23 21
e 23 22
e 24 2
e 24 3
e 24 8
e 24 11
e 24 13
e 24 14
e 24 16
e 24 19
e 24 20
e 25 1
e 25 5
e 25 6
e 25 7
e 25 10
e 25 11
e 25 16
e 25 18
e 25 21
e 25 22
e 25 23
e 26 1
e 26 2
e 26 4
e 26 6
e 26 9
e 26 12
e 26 15
e 26 16
e 26 17
e 26 18
e 26 20
e 26 22
e 27 6
e 27 7
e 27 9
e 27 11
e 27 12
e 27 14
e 27 15
e 27 18
e 28 1
e 28 3
e 28 4
e 28 5
e 28 6
e 28 7
e 28 8
e 28 11
e 28 12
e 28 15
e 28 18
e 28 19
e 28 20
e 28 22
e 28 26
e 28 27
e 29 2
e 29 3
e 29 7
e 29 9
e 29 11
e 29 14
e 29 15
e 29 19
e 29 21
e 29 24
e 29 25
e 29 27
e 30 1
e 30 2
e 30 3
e 30 6
e 30 8
e 30 9
e 30 10
e 30 11
e 30 13
e 30 15
e 30 16
e 30 17
e 30 24
e 30 25
e 30 26
e 30 28
e 31 3
e 31 4
e 31 10
e 31 11
e 31 12
e 31 13
e 31 14
e 31 17
e 31 18
e 31 19
e 31 23
e 31 26
e 32 1
e 32 4
e 32 5
e 32 6
e 32 7
e 32 8
e 32 9
e 32 11
e 32 13
e 32 15
e 32 18
e 32 19
e 32 20
e 32 22
e 32 23
e 32 25
e 32 26
e 32 27
e 32 28
e 32 31
e 33 3
e 33 4
e 33 6
e 33 7
e 33 8
e 33 9
e 33 11
e 33 12
e 33 14
e 33 16
e 33 18
e 33 20
e 33 21
e 33 23
e 33 24
e 33 25
e 33 27
e 33 30
e 34 1
e 34 4
e 34 7
e 34 11
e 34 12
e 34 14
e 34 17
e 34 18
e 34 20
e 34 21
e 34 24
e 34 25
e 34 26
e 34 27
e 34 30
e 34 32
e 35 1
e 35 2
e 35 3
e 35 5
e 35 7
e 35 8
e 35 11
e 35 16
e 35 17
e 35 18
e 35 23
e 35 24
e 35 27
e 35 28
e 35 29
e 35 30
e 35 32
e 35 33
e 36 2
e 36 6
e 36 7
e 36 8
e 36 13
e 36 14
e 36 17
e 36 18
e 36 20
e 36 23
e 36 26
e 36 28
e 36 30
e 36 32
e 37 1
e 37 3
e 37 4
e 37 5
e 37 10
e 37 13
e 37 14
e 37 15
e 37 18
e 37 19
e 37 20
e 37 21
e 37 23
e 37 25
e 37 26
e 37 27
e 37 31
e 37 35
e 37 36
e 38 1
e 38 3
e 38 4
e 38 5
e 38 6
e 38 7
e 38 10
e 38 11
e 38 12
e 38 14
e 38 15
e 38 16
e 38 17
e 38 18
e 38 20
e 38 27
e 38 28
e 38 29
e 38 31
e 39 1
e 39 2
e 39 3
e 39 4
e 39 9
e 39 10
e 39 11
e 39 13
e 39 15
e 39 17
e 39 22
e 39 23
e 39 24
e 39 25
e 39 27
e 39 33
e 39 36
e 39 37
e 39 38
e 40 3
e 40 6
e 40 7
e 40 8
e 40 15
e 40 18
e 40 19
e 40 21
e 40 22
e 40 23
e 40 28
e 40 29
e 40 30
e 40 34
e 40 35
e 40 38
e 41 1
e 41 4
e 41 5
e 41 6
e 41 7
e 41 9
e 41 10
e 41 11
e 41 18
e 41 19
e 41 20
e 41 22
e 41 24
e 41 26
e 41 27
e 41 31
e 41 33
e 41 34
e 41 35
e 41 36
e 41 37
e 41 39
e 42 2
e 42 4
e 42 6
e 42 8
e 42 16
e 42 17
e 42 18
e 42 19
e 42 21
e 42 22
e 42 23
e 42 24
e 42 25
e 42 30
e 42 31
e 42 32
e 42 33
e 42 35
e 42 38
e 43 2
e 43 3
e 43 6
e 43 9
e 43 12
e 43 15
e 43 18
e 43 22
e 43 24
e 43 25
e 43 26
e 43 27
e 43 30
e 43 31
e 43 33
e 43 38
e 43 39
e 43 40
e 43 42
e 44 1
e 44 3
e 44 4
e 44 5
e 44 6
e 44 8
e 44 10
e 44 11
e 44 12
e 44 14
e 44 19
e 44 22
e 44 23
e 44 24
e 44 29
e 44 30
e 44 35
e 44 36
e 44 37
e 44 39
e 44 42
e 45 2
e 45 6
e 45 10
e 45 12
e 45 14
e 45 15
e 45 18
e 45 19
e 45 20
e 45 24
e 45 25
e 45 27
e 45 28
e 45 30
e 45 33
e 45 36
e 45 38
e 45 39
e 45 43
e 45 44
e 46 1
e 46 2
e 46 5
e 46 7
e 46 8
e 46 9
e 46 13
e 46 16
e 46 18
e 46 20
e 46 22
e 46 28
e 46 31
e 46 32
e 46 35
e 46 36
e 46 37
e 46 38
e 46 39
e 46 40
e 46 44
e 46 45
e 47 4
e 47 5
e 47 6
e 47 7
e 47 10
e 47 11
e 47 13
e 47 15
e 47 21
e 47 23
e 47 24
e 47 25
e 47 26
e 47 28
e 47 30
e 47 32
e 47 33
e 47 36
e 47 37
e 47 38
e 47 39
e 47 40
e 47 43
e 47 44
e 47 45
e 48 7
e 48 8
e 48 12
e 48 16
e 48 18
e 48 20
e 48 21
e 48 22
e 48 25
e 48 26
e 48 30
e 48 32
e 48 33
e 48 35
e 48 36
e 48 37
e 48 38
e 48 40
e 48 42
e 48 43
e 48 45
e 49 1
e 49 5
e 49 6
e 49 7
e 49 9
e 49 13
e 49 15
e 49 16
e 49 17
e 49 18
e 49 21
e 49 24
e 49 26
e 49 30
e 49 31
e 49 33
e 49 34
e 49 36
e 49 38
e 49 39
e 49 40
e 49 41
e 49 45
e 49 46
e 49 47
e 50 1
e 50 2
e 50 3
e 50 7
e 50 9
e 50 15
e 50 16
e 50 18
e 50 19
e 50 21
e 50 23
e 50 26
e 50 27
e 50 28
e 50 29
e 50 31
e 50 45
e 51 2
e 51 3
e 51 6
e 51 7
e 51 8
e 51 9
e 51 11
e 51 12
e 51 15
e 51 19
e 51 20
e 51 22
e 51 23
e 51 25
e 51 29
e 51 30
e 51 31
e 51 32
e 51 33
e 51 34
e 51 35
e 51 36
e 51 38
e 51 40
e 51 42
e 51 43
e 51 44
e 51 46
e 51 48
e 52 8
e 52 10
e 52 11
e 52 12
e 52 16
e 52 17
e 52 18
e 52 20
e 52 23
e 52 24
e 52 27
e 52 28
e 52 32
e 52 33
e 52 36
e 52 40
e 52 42
e 52 46
e 52 47
e 52 49
e 52 50
e 53 1
e 53 2
e 53 3
e 53 4
e 53 5
e 53 6
e 53 8
e 53 9
e 53 10
e 53 12
e 53 15
e 53 21
e 53 22
e 53 23
e 53 24
e 53 26
e 53 27
e 53 29
e 53 30
e 53 31
e 53 33
e 53 36
e 53 37
e 53 39
e 53 41
e 53 42
e 53 44
e 53 46
e 53 47
e 54 3
e 54 4
e 54 7
e 54 9
e 54 10
e 54 11
e 54 14
e 54 15
e 54 18
e 54 25
e 54 28
e 54 29
e 54 32
e 54 38
e 54 41
e 54 44
e 54 48
e 54 49
e 54 52
e 55 2
e 55 4
e 55 7
e 55 10
e 55 12
e 55 13
e 55 15
e 55 16
e 55 17
e 55 19
e 55 20
e 55 21
e 55 22
e 55 23
e 55 24
e 55 27
e 55 28
e 55 29
e 55 30
e 55 31
e 55 34
e 55 35
e 55 36
e 55 37
e 55 40
e 55 42
e 55 44
e 55 45
e 55 47
e 55 48
e 55 49
e 55 50
e 55 51
e 56 1
e 56 5
e 56 8
e 56 10
e 56 12
e 56 13
e 56 14
e 56 17
e 56 19
e 56 21
e 56 22
e 56 26
e 56 27
e 56 28
e 56 29
e 56 32
e 56 33
e 56 39
e 56 44
e 56 46
e 56 47
e 56 48
e 56 51
e 56 53
e 56 54
e 56 55
e 57 2
e 57 3
e 57 5
e 57 6
e 57 7
e 57 8
e 57 9
e 57 12
e 57 14
e 57 17
e 57 18
e 57 19
e 57 20
e 57 22
e 57 24
e 57 25
e 57 28
e 57 31
e 57 33
e 57 34
e 57 35
e 57 36
e 57 40
e 57 44
e 57 50
e 57 52
e 57 53
e 57 54
e 57 55
e 58 4
e 58 9
e 58 10
e 58 18
e 58 20
e 58 22
e 58 25
e 58 26
e 58 27
e 58 31
e 58 33
e 58 34
e 58 35
e 58 38
e 58 39
e 58 40
e 58 43
e 58 47
e 58 48
e 58 54
e 58 56
e 58 57
e 59 5
e 59 7
e 59 10
e 59 11
e 59 12
e 59 16
e 59 17
e 59 18
e 59 20
e 59 21
e 59 25
e 59 28
e 59 30
e 59 32
e 59 34
e 59 35
e 59 37
e 59 41
e 59 46
e 59 47
e 59 48
e 59 50
e 59 51
e 59 52
e 59 53
e 59 54
e 59 55
e 59 56
e 59 57
e 59 58
